2000, -294970296
389, 4002001
26, 4002002
588, 4002003
979, 4002004
557, 4002005
756, 4002006
205, 4002007
333, 4002008
584, 4002009
649, 4002010
1, 4002011
249, 4002012
61, 4002013
572, 4002014
438, 4002015
451, 4002016
358, 4002017
184, 4002018
585, 4002019
87, 4002020
925, 4002021
133, 4002022
622, 4002023
93, 4002024
842, 4002025
898, 4002026
139, 4002027
358, 4002028
810, 4002029
896, 4002030
41, 4002031
612, 4002032
505, 4002033
797, 4002034
138, 4002035
990, 4002036
793, 4002037
118, 4002038
755, 4002039
641, 4002040
264, 4002041
795, 4002042
627, 4002043
575, 4002044
190, 4002045
14, 4002046
410, 4002047
811, 4002048
387, 4002049
651, 4002050
170, 4002051
19, 4002052
589, 4002053
641, 4002054
337, 4002055
204, 4002056
864, 4002057
16, 4002058
949, 4002059
665, 4002060
867, 4002061
785, 4002062
358, 4002063
580, 4002064
593, 4002065
32, 4002066
870, 4002067
955, 4002068
301, 4002069
21, 4002070
852, 4002071
84, 4002072
844, 4002073
837, 4002074
380, 4002075
512, 4002076
894, 4002077
957, 4002078
288, 4002079
947, 4002080
621, 4002081
296, 4002082
938, 4002083
890, 4002084
749, 4002085
67, 4002086
479, 4002087
411, 4002088
858, 4002089
583, 4002090
229, 4002091
456, 4002092
836, 4002093
215, 4002094
572, 4002095
508, 4002096
789, 4002097
869, 4002098
457, 4002099
659, 4002100
505, 4002101
601, 4002102
358, 4002103
102, 4002104
716, 4002105
633, 4002106
331, 4002107
980, 4002108
527, 4002109
682, 4002110
752, 4002111
10, 4002112
684, 4002113
685, 4002114
399, 4002115
964, 4002116
525, 4002117
626, 4002118
886, 4002119
360, 4002120
456, 4002121
496, 4002122
315, 4002123
778, 4002124
925, 4002125
506, 4002126
549, 4002127
474, 4002128
221, 4002129
91, 4002130
233, 4002131
575, 4002132
317, 4002133
666, 4002134
91, 4002135
95, 4002136
320, 4002137
87, 4002138
232, 4002139
388, 4002140
216, 4002141
827, 4002142
602, 4002143
472, 4002144
438, 4002145
83, 4002146
979, 4002147
65, 4002148
877, 4002149
118, 4002150
448, 4002151
589, 4002152
450, 4002153
706, 4002154
623, 4002155
342, 4002156
982, 4002157
490, 4002158
465, 4002159
351, 4002160
938, 4002161
426, 4002162
16, 4002163
973, 4002164
513, 4002165
240, 4002166
905, 4002167
311, 4002168
913, 4002169
181, 4002170
579, 4002171
294, 4002172
82, 4002173
250, 4002174
574, 4002175
917, 4002176
132, 4002177
443, 4002178
285, 4002179
553, 4002180
381, 4002181
686, 4002182
811, 4002183
753, 4002184
425, 4002185
228, 4002186
593, 4002187
54, 4002188
407, 4002189
599, 4002190
134, 4002191
52, 4002192
914, 4002193
290, 4002194
293, 4002195
895, 4002196
613, 4002197
612, 4002198
698, 4002199
703, 4002200
837, 4002201
388, 4002202
420, 4002203
691, 4002204
139, 4002205
158, 4002206
68, 4002207
393, 4002208
751, 4002209
12, 4002210
756, 4002211
396, 4002212
213, 4002213
621, 4002214
321, 4002215
532, 4002216
779, 4002217
600, 4002218
417, 4002219
281, 4002220
976, 4002221
793, 4002222
789, 4002223
872, 4002224
399, 4002225
611, 4002226
864, 4002227
436, 4002228
785, 4002229
700, 4002230
261, 4002231
877, 4002232
62, 4002233
637, 4002234
76, 4002235
28, 4002236
228, 4002237
902, 4002238
85, 4002239
972, 4002240
630, 4002241
613, 4002242
762, 4002243
915, 4002244
974, 4002245
584, 4002246
905, 4002247
502, 4002248
426, 4002249
653, 4002250
272, 4002251
208, 4002252
170, 4002253
881, 4002254
175, 4002255
379, 4002256
447, 4002257
398, 4002258
913, 4002259
540, 4002260
254, 4002261
394, 4002262
866, 4002263
371, 4002264
979, 4002265
246, 4002266
585, 4002267
424, 4002268
558, 4002269
644, 4002270
479, 4002271
631, 4002272
40, 4002273
616, 4002274
126, 4002275
380, 4002276
30, 4002277
240, 4002278
187, 4002279
215, 4002280
693, 4002281
148, 4002282
460, 4002283
337, 4002284
171, 4002285
749, 4002286
610, 4002287
877, 4002288
852, 4002289
33, 4002290
416, 4002291
111, 4002292
970, 4002293
277, 4002294
297, 4002295
943, 4002296
820, 4002297
609, 4002298
253, 4002299
519, 4002300
399, 4002301
856, 4002302
428, 4002303
632, 4002304
871, 4002305
444, 4002306
641, 4002307
585, 4002308
167, 4002309
13, 4002310
792, 4002311
135, 4002312
548, 4002313
75, 4002314
767, 4002315
557, 4002316
669, 4002317
679, 4002318
912, 4002319
118, 4002320
37, 4002321
726, 4002322
389, 4002323
37, 4002324
311, 4002325
845, 4002326
146, 4002327
619, 4002328
281, 4002329
5, 4002330
215, 4002331
105, 4002332
457, 4002333
920, 4002334
155, 4002335
585, 4002336
34, 4002337
722, 4002338
825, 4002339
617, 4002340
568, 4002341
184, 4002342
446, 4002343
247, 4002344
271, 4002345
523, 4002346
184, 4002347
525, 4002348
439, 4002349
694, 4002350
520, 4002351
646, 4002352
922, 4002353
628, 4002354
177, 4002355
15, 4002356
108, 4002357
410, 4002358
78, 4002359
46, 4002360
58, 4002361
218, 4002362
863, 4002363
966, 4002364
739, 4002365
757, 4002366
220, 4002367
1, 4002368
785, 4002369
200, 4002370
320, 4002371
547, 4002372
472, 4002373
472, 4002374
350, 4002375
869, 4002376
910, 4002377
637, 4002378
383, 4002379
608, 4002380
561, 4002381
642, 4002382
650, 4002383
573, 4002384
291, 4002385
50, 4002386
818, 4002387
507, 4002388
521, 4002389
844, 4002390
355, 4002391
472, 4002392
295, 4002393
8, 4002394
477, 4002395
518, 4002396
805, 4002397
360, 4002398
719, 4002399
880, 4002400
845, 4002401
247, 4002402
4, 4002403
794, 4002404
746, 4002405
365, 4002406
401, 4002407
739, 4002408
129, 4002409
120, 4002410
324, 4002411
390, 4002412
179, 4002413
187, 4002414
654, 4002415
916, 4002416
129, 4002417
170, 4002418
218, 4002419
395, 4002420
766, 4002421
604, 4002422
875, 4002423
282, 4002424
704, 4002425
368, 4002426
641, 4002427
530, 4002428
55, 4002429
719, 4002430
860, 4002431
686, 4002432
244, 4002433
80, 4002434
679, 4002435
923, 4002436
3, 4002437
118, 4002438
494, 4002439
648, 4002440
25, 4002441
372, 4002442
199, 4002443
791, 4002444
949, 4002445
249, 4002446
181, 4002447
729, 4002448
162, 4002449
67, 4002450
928, 4002451
701, 4002452
235, 4002453
296, 4002454
869, 4002455
442, 4002456
134, 4002457
112, 4002458
939, 4002459
344, 4002460
857, 4002461
356, 4002462
227, 4002463
107, 4002464
680, 4002465
833, 4002466
600, 4002467
783, 4002468
708, 4002469
318, 4002470
573, 4002471
404, 4002472
668, 4002473
761, 4002474
809, 4002475
99, 4002476
216, 4002477
933, 4002478
173, 4002479
974, 4002480
728, 4002481
198, 4002482
603, 4002483
179, 4002484
809, 4002485
234, 4002486
409, 4002487
162, 4002488
807, 4002489
257, 4002490
844, 4002491
314, 4002492
364, 4002493
70, 4002494
477, 4002495
967, 4002496
719, 4002497
676, 4002498
743, 4002499
950, 4002500
773, 4002501
642, 4002502
646, 4002503
239, 4002504
988, 4002505
583, 4002506
440, 4002507
858, 4002508
690, 4002509
733, 4002510
855, 4002511
234, 4002512
490, 4002513
313, 4002514
853, 4002515
100, 4002516
262, 4002517
177, 4002518
991, 4002519
920, 4002520
421, 4002521
548, 4002522
346, 4002523
255, 4002524
110, 4002525
181, 4002526
241, 4002527
107, 4002528
443, 4002529
648, 4002530
812, 4002531
273, 4002532
479, 4002533
659, 4002534
529, 4002535
945, 4002536
80, 4002537
510, 4002538
366, 4002539
780, 4002540
101, 4002541
939, 4002542
92, 4002543
645, 4002544
775, 4002545
462, 4002546
222, 4002547
16, 4002548
588, 4002549
413, 4002550
863, 4002551
246, 4002552
319, 4002553
896, 4002554
967, 4002555
54, 4002556
305, 4002557
921, 4002558
238, 4002559
709, 4002560
771, 4002561
949, 4002562
919, 4002563
439, 4002564
601, 4002565
769, 4002566
518, 4002567
163, 4002568
432, 4002569
190, 4002570
602, 4002571
514, 4002572
695, 4002573
829, 4002574
67, 4002575
495, 4002576
417, 4002577
675, 4002578
564, 4002579
136, 4002580
633, 4002581
214, 4002582
81, 4002583
867, 4002584
949, 4002585
493, 4002586
154, 4002587
250, 4002588
604, 4002589
91, 4002590
6, 4002591
63, 4002592
631, 4002593
603, 4002594
232, 4002595
808, 4002596
506, 4002597
61, 4002598
13, 4002599
691, 4002600
596, 4002601
944, 4002602
820, 4002603
266, 4002604
66, 4002605
85, 4002606
4, 4002607
976, 4002608
671, 4002609
850, 4002610
504, 4002611
202, 4002612
599, 4002613
556, 4002614
14, 4002615
127, 4002616
215, 4002617
667, 4002618
227, 4002619
160, 4002620
631, 4002621
681, 4002622
536, 4002623
175, 4002624
759, 4002625
979, 4002626
16, 4002627
395, 4002628
756, 4002629
486, 4002630
479, 4002631
843, 4002632
588, 4002633
58, 4002634
988, 4002635
158, 4002636
829, 4002637
162, 4002638
375, 4002639
665, 4002640
530, 4002641
258, 4002642
987, 4002643
696, 4002644
797, 4002645
343, 4002646
628, 4002647
850, 4002648
869, 4002649
874, 4002650
546, 4002651
993, 4002652
170, 4002653
949, 4002654
180, 4002655
191, 4002656
691, 4002657
867, 4002658
565, 4002659
882, 4002660
22, 4002661
300, 4002662
74, 4002663
689, 4002664
88, 4002665
606, 4002666
106, 4002667
725, 4002668
272, 4002669
932, 4002670
852, 4002671
336, 4002672
464, 4002673
899, 4002674
908, 4002675
184, 4002676
379, 4002677
599, 4002678
413, 4002679
580, 4002680
632, 4002681
786, 4002682
983, 4002683
101, 4002684
213, 4002685
621, 4002686
762, 4002687
886, 4002688
92, 4002689
533, 4002690
721, 4002691
773, 4002692
569, 4002693
246, 4002694
496, 4002695
535, 4002696
721, 4002697
155, 4002698
22, 4002699
279, 4002700
563, 4002701
883, 4002702
283, 4002703
679, 4002704
915, 4002705
245, 4002706
490, 4002707
404, 4002708
218, 4002709
573, 4002710
784, 4002711
30, 4002712
758, 4002713
644, 4002714
618, 4002715
909, 4002716
680, 4002717
91, 4002718
659, 4002719
373, 4002720
568, 4002721
375, 4002722
867, 4002723
578, 4002724
291, 4002725
935, 4002726
784, 4002727
340, 4002728
373, 4002729
225, 4002730
48, 4002731
52, 4002732
519, 4002733
936, 4002734
469, 4002735
692, 4002736
505, 4002737
8, 4002738
391, 4002739
139, 4002740
160, 4002741
103, 4002742
53, 4002743
142, 4002744
281, 4002745
926, 4002746
924, 4002747
752, 4002748
291, 4002749
742, 4002750
733, 4002751
602, 4002752
529, 4002753
339, 4002754
731, 4002755
802, 4002756
373, 4002757
492, 4002758
394, 4002759
72, 4002760
246, 4002761
64, 4002762
489, 4002763
732, 4002764
282, 4002765
761, 4002766
664, 4002767
353, 4002768
60, 4002769
116, 4002770
602, 4002771
365, 4002772
734, 4002773
199, 4002774
84, 4002775
606, 4002776
160, 4002777
234, 4002778
99, 4002779
517, 4002780
759, 4002781
430, 4002782
946, 4002783
950, 4002784
710, 4002785
808, 4002786
505, 4002787
598, 4002788
208, 4002789
62, 4002790
422, 4002791
491, 4002792
811, 4002793
280, 4002794
840, 4002795
615, 4002796
30, 4002797
720, 4002798
886, 4002799
357, 4002800
643, 4002801
602, 4002802
435, 4002803
66, 4002804
173, 4002805
876, 4002806
253, 4002807
205, 4002808
291, 4002809
374, 4002810
377, 4002811
70, 4002812
483, 4002813
227, 4002814
816, 4002815
658, 4002816
727, 4002817
190, 4002818
173, 4002819
333, 4002820
818, 4002821
453, 4002822
796, 4002823
550, 4002824
572, 4002825
201, 4002826
196, 4002827
486, 4002828
121, 4002829
172, 4002830
534, 4002831
608, 4002832
102, 4002833
457, 4002834
843, 4002835
498, 4002836
404, 4002837
318, 4002838
576, 4002839
450, 4002840
186, 4002841
476, 4002842
181, 4002843
418, 4002844
974, 4002845
429, 4002846
393, 4002847
717, 4002848
316, 4002849
285, 4002850
400, 4002851
662, 4002852
309, 4002853
938, 4002854
845, 4002855
127, 4002856
609, 4002857
868, 4002858
519, 4002859
887, 4002860
221, 4002861
828, 4002862
223, 4002863
379, 4002864
229, 4002865
696, 4002866
928, 4002867
478, 4002868
195, 4002869
133, 4002870
734, 4002871
703, 4002872
509, 4002873
195, 4002874
903, 4002875
201, 4002876
674, 4002877
421, 4002878
708, 4002879
6, 4002880
653, 4002881
454, 4002882
736, 4002883
275, 4002884
112, 4002885
484, 4002886
495, 4002887
368, 4002888
106, 4002889
327, 4002890
216, 4002891
716, 4002892
33, 4002893
130, 4002894
235, 4002895
324, 4002896
832, 4002897
929, 4002898
148, 4002899
228, 4002900
562, 4002901
393, 4002902
245, 4002903
796, 4002904
524, 4002905
412, 4002906
943, 4002907
740, 4002908
846, 4002909
913, 4002910
865, 4002911
247, 4002912
586, 4002913
47, 4002914
39, 4002915
195, 4002916
611, 4002917
83, 4002918
20, 4002919
647, 4002920
71, 4002921
508, 4002922
639, 4002923
132, 4002924
893, 4002925
294, 4002926
466, 4002927
172, 4002928
71, 4002929
59, 4002930
237, 4002931
438, 4002932
553, 4002933
715, 4002934
743, 4002935
159, 4002936
159, 4002937
853, 4002938
661, 4002939
401, 4002940
978, 4002941
283, 4002942
912, 4002943
607, 4002944
371, 4002945
402, 4002946
795, 4002947
239, 4002948
622, 4002949
454, 4002950
875, 4002951
918, 4002952
448, 4002953
818, 4002954
197, 4002955
679, 4002956
681, 4002957
398, 4002958
458, 4002959
916, 4002960
3, 4002961
326, 4002962
645, 4002963
578, 4002964
368, 4002965
769, 4002966
491, 4002967
33, 4002968
335, 4002969
911, 4002970
833, 4002971
770, 4002972
95, 4002973
930, 4002974
218, 4002975
294, 4002976
81, 4002977
557, 4002978
366, 4002979
309, 4002980
26, 4002981
552, 4002982
451, 4002983
668, 4002984
902, 4002985
713, 4002986
208, 4002987
557, 4002988
238, 4002989
907, 4002990
828, 4002991
619, 4002992
34, 4002993
778, 4002994
635, 4002995
898, 4002996
375, 4002997
245, 4002998
481, 4002999
363, 4003000
442, 4003001
259, 4003002
188, 4003003
837, 4003004
683, 4003005
902, 4003006
461, 4003007
469, 4003008
811, 4003009
962, 4003010
839, 4003011
918, 4003012
533, 4003013
382, 4003014
446, 4003015
329, 4003016
808, 4003017
65, 4003018
601, 4003019
270, 4003020
746, 4003021
694, 4003022
417, 4003023
433, 4003024
462, 4003025
896, 4003026
135, 4003027
453, 4003028
759, 4003029
830, 4003030
609, 4003031
587, 4003032
554, 4003033
431, 4003034
36, 4003035
348, 4003036
887, 4003037
319, 4003038
483, 4003039
826, 4003040
264, 4003041
72, 4003042
798, 4003043
603, 4003044
497, 4003045
97, 4003046
548, 4003047
709, 4003048
510, 4003049
202, 4003050
649, 4003051
835, 4003052
383, 4003053
325, 4003054
295, 4003055
342, 4003056
990, 4003057
478, 4003058
425, 4003059
387, 4003060
246, 4003061
700, 4003062
523, 4003063
715, 4003064
430, 4003065
509, 4003066
227, 4003067
870, 4003068
556, 4003069
469, 4003070
747, 4003071
631, 4003072
898, 4003073
287, 4003074
596, 4003075
83, 4003076
444, 4003077
585, 4003078
219, 4003079
41, 4003080
839, 4003081
452, 4003082
727, 4003083
546, 4003084
171, 4003085
914, 4003086
632, 4003087
594, 4003088
978, 4003089
502, 4003090
161, 4003091
733, 4003092
398, 4003093
271, 4003094
159, 4003095
122, 4003096
846, 4003097
284, 4003098
360, 4003099
907, 4003100
553, 4003101
168, 4003102
180, 4003103
66, 4003104
512, 4003105
207, 4003106
703, 4003107
741, 4003108
768, 4003109
383, 4003110
860, 4003111
827, 4003112
550, 4003113
64, 4003114
339, 4003115
957, 4003116
752, 4003117
284, 4003118
339, 4003119
213, 4003120
362, 4003121
775, 4003122
776, 4003123
457, 4003124
750, 4003125
919, 4003126
710, 4003127
968, 4003128
778, 4003129
524, 4003130
155, 4003131
147, 4003132
742, 4003133
681, 4003134
296, 4003135
205, 4003136
979, 4003137
264, 4003138
808, 4003139
19, 4003140
676, 4003141
850, 4003142
176, 4003143
661, 4003144
656, 4003145
516, 4003146
589, 4003147
874, 4003148
469, 4003149
643, 4003150
352, 4003151
423, 4003152
318, 4003153
81, 4003154
140, 4003155
256, 4003156
982, 4003157
556, 4003158
446, 4003159
765, 4003160
202, 4003161
501, 4003162
604, 4003163
806, 4003164
771, 4003165
790, 4003166
910, 4003167
479, 4003168
9, 4003169
43, 4003170
232, 4003171
604, 4003172
168, 4003173
850, 4003174
101, 4003175
357, 4003176
286, 4003177
322, 4003178
733, 4003179
163, 4003180
610, 4003181
519, 4003182
751, 4003183
225, 4003184
246, 4003185
547, 4003186
87, 4003187
963, 4003188
830, 4003189
822, 4003190
457, 4003191
561, 4003192
567, 4003193
783, 4003194
403, 4003195
941, 4003196
472, 4003197
9, 4003198
199, 4003199
120, 4003200
3, 4003201
734, 4003202
662, 4003203
817, 4003204
460, 4003205
46, 4003206
701, 4003207
893, 4003208
16, 4003209
809, 4003210
587, 4003211
919, 4003212
672, 4003213
16, 4003214
977, 4003215
993, 4003216
371, 4003217
616, 4003218
192, 4003219
569, 4003220
486, 4003221
838, 4003222
646, 4003223
501, 4003224
599, 4003225
643, 4003226
689, 4003227
374, 4003228
229, 4003229
473, 4003230
73, 4003231
512, 4003232
50, 4003233
43, 4003234
690, 4003235
568, 4003236
729, 4003237
873, 4003238
623, 4003239
956, 4003240
487, 4003241
745, 4003242
87, 4003243
38, 4003244
69, 4003245
222, 4003246
364, 4003247
937, 4003248
844, 4003249
397, 4003250
823, 4003251
106, 4003252
687, 4003253
922, 4003254
645, 4003255
15, 4003256
660, 4003257
23, 4003258
940, 4003259
835, 4003260
555, 4003261
565, 4003262
877, 4003263
104, 4003264
188, 4003265
57, 4003266
316, 4003267
810, 4003268
357, 4003269
592, 4003270
763, 4003271
226, 4003272
98, 4003273
58, 4003274
338, 4003275
976, 4003276
578, 4003277
938, 4003278
241, 4003279
464, 4003280
928, 4003281
947, 4003282
156, 4003283
550, 4003284
823, 4003285
820, 4003286
286, 4003287
617, 4003288
837, 4003289
69, 4003290
486, 4003291
651, 4003292
576, 4003293
751, 4003294
588, 4003295
582, 4003296
995, 4003297
976, 4003298
364, 4003299
192, 4003300
969, 4003301
36, 4003302
897, 4003303
935, 4003304
25, 4003305
820, 4003306
939, 4003307
494, 4003308
632, 4003309
962, 4003310
585, 4003311
870, 4003312
521, 4003313
267, 4003314
639, 4003315
173, 4003316
376, 4003317
539, 4003318
689, 4003319
266, 4003320
953, 4003321
916, 4003322
693, 4003323
766, 4003324
438, 4003325
263, 4003326
925, 4003327
371, 4003328
614, 4003329
216, 4003330
218, 4003331
217, 4003332
94, 4003333
309, 4003334
929, 4003335
380, 4003336
627, 4003337
144, 4003338
153, 4003339
774, 4003340
118, 4003341
944, 4003342
291, 4003343
123, 4003344
454, 4003345
987, 4003346
480, 4003347
215, 4003348
89, 4003349
863, 4003350
262, 4003351
634, 4003352
954, 4003353
748, 4003354
539, 4003355
668, 4003356
315, 4003357
219, 4003358
784, 4003359
872, 4003360
517, 4003361
313, 4003362
302, 4003363
20, 4003364
315, 4003365
940, 4003366
940, 4003367
655, 4003368
939, 4003369
452, 4003370
526, 4003371
810, 4003372
555, 4003373
843, 4003374
415, 4003375
783, 4003376
359, 4003377
901, 4003378
752, 4003379
524, 4003380
521, 4003381
312, 4003382
966, 4003383
705, 4003384
680, 4003385
117, 4003386
679, 4003387
765, 4003388
697, 4003389
732, 4003390
820, 4003391
428, 4003392
472, 4003393
443, 4003394
993, 4003395
819, 4003396
224, 4003397
352, 4003398
904, 4003399
938, 4003400
246, 4003401
146, 4003402
761, 4003403
696, 4003404
833, 4003405
363, 4003406
805, 4003407
667, 4003408
276, 4003409
880, 4003410
237, 4003411
645, 4003412
162, 4003413
14, 4003414
79, 4003415
399, 4003416
777, 4003417
471, 4003418
193, 4003419
897, 4003420
167, 4003421
147, 4003422
764, 4003423
207, 4003424
960, 4003425
559, 4003426
385, 4003427
805, 4003428
285, 4003429
361, 4003430
31, 4003431
507, 4003432
517, 4003433
992, 4003434
626, 4003435
378, 4003436
743, 4003437
776, 4003438
925, 4003439
477, 4003440
806, 4003441
764, 4003442
121, 4003443
985, 4003444
803, 4003445
714, 4003446
643, 4003447
516, 4003448
654, 4003449
946, 4003450
481, 4003451
888, 4003452
158, 4003453
783, 4003454
765, 4003455
585, 4003456
427, 4003457
379, 4003458
216, 4003459
67, 4003460
722, 4003461
358, 4003462
247, 4003463
388, 4003464
752, 4003465
672, 4003466
194, 4003467
583, 4003468
950, 4003469
234, 4003470
71, 4003471
703, 4003472
187, 4003473
569, 4003474
659, 4003475
727, 4003476
717, 4003477
58, 4003478
809, 4003479
776, 4003480
512, 4003481
70, 4003482
424, 4003483
883, 4003484
612, 4003485
239, 4003486
592, 4003487
554, 4003488
530, 4003489
705, 4003490
509, 4003491
11, 4003492
503, 4003493
930, 4003494
954, 4003495
660, 4003496
472, 4003497
993, 4003498
623, 4003499
687, 4003500
52, 4003501
882, 4003502
796, 4003503
719, 4003504
277, 4003505
847, 4003506
931, 4003507
529, 4003508
966, 4003509
24, 4003510
753, 4003511
828, 4003512
229, 4003513
436, 4003514
268, 4003515
369, 4003516
322, 4003517
669, 4003518
454, 4003519
522, 4003520
158, 4003521
584, 4003522
432, 4003523
406, 4003524
997, 4003525
322, 4003526
503, 4003527
867, 4003528
412, 4003529
315, 4003530
43, 4003531
419, 4003532
970, 4003533
470, 4003534
818, 4003535
623, 4003536
154, 4003537
15, 4003538
857, 4003539
550, 4003540
760, 4003541
139, 4003542
739, 4003543
278, 4003544
759, 4003545
579, 4003546
207, 4003547
985, 4003548
249, 4003549
904, 4003550
661, 4003551
658, 4003552
958, 4003553
96, 4003554
9, 4003555
741, 4003556
242, 4003557
831, 4003558
14, 4003559
449, 4003560
371, 4003561
478, 4003562
988, 4003563
9, 4003564
889, 4003565
464, 4003566
627, 4003567
694, 4003568
812, 4003569
239, 4003570
605, 4003571
974, 4003572
825, 4003573
27, 4003574
671, 4003575
528, 4003576
949, 4003577
362, 4003578
31, 4003579
189, 4003580
439, 4003581
256, 4003582
95, 4003583
160, 4003584
370, 4003585
753, 4003586
96, 4003587
974, 4003588
728, 4003589
449, 4003590
680, 4003591
439, 4003592
199, 4003593
867, 4003594
460, 4003595
314, 4003596
520, 4003597
70, 4003598
694, 4003599
756, 4003600
810, 4003601
649, 4003602
599, 4003603
681, 4003604
643, 4003605
864, 4003606
629, 4003607
217, 4003608
55, 4003609
795, 4003610
998, 4003611
68, 4003612
286, 4003613
766, 4003614
875, 4003615
78, 4003616
442, 4003617
347, 4003618
381, 4003619
483, 4003620
782, 4003621
73, 4003622
515, 4003623
659, 4003624
351, 4003625
752, 4003626
2, 4003627
143, 4003628
166, 4003629
522, 4003630
770, 4003631
281, 4003632
620, 4003633
987, 4003634
991, 4003635
72, 4003636
405, 4003637
338, 4003638
189, 4003639
881, 4003640
445, 4003641
293, 4003642
603, 4003643
886, 4003644
101, 4003645
880, 4003646
705, 4003647
811, 4003648
334, 4003649
582, 4003650
833, 4003651
283, 4003652
228, 4003653
30, 4003654
24, 4003655
543, 4003656
460, 4003657
535, 4003658
470, 4003659
903, 4003660
109, 4003661
635, 4003662
577, 4003663
54, 4003664
163, 4003665
647, 4003666
494, 4003667
969, 4003668
311, 4003669
281, 4003670
248, 4003671
632, 4003672
231, 4003673
152, 4003674
566, 4003675
484, 4003676
956, 4003677
176, 4003678
73, 4003679
935, 4003680
254, 4003681
803, 4003682
819, 4003683
798, 4003684
306, 4003685
56, 4003686
536, 4003687
914, 4003688
364, 4003689
614, 4003690
288, 4003691
754, 4003692
253, 4003693
561, 4003694
515, 4003695
857, 4003696
381, 4003697
260, 4003698
787, 4003699
734, 4003700
353, 4003701
861, 4003702
701, 4003703
343, 4003704
94, 4003705
157, 4003706
487, 4003707
884, 4003708
139, 4003709
212, 4003710
67, 4003711
754, 4003712
547, 4003713
688, 4003714
730, 4003715
612, 4003716
392, 4003717
998, 4003718
394, 4003719
627, 4003720
152, 4003721
455, 4003722
96, 4003723
375, 4003724
628, 4003725
581, 4003726
878, 4003727
372, 4003728
491, 4003729
794, 4003730
709, 4003731
526, 4003732
899, 4003733
335, 4003734
851, 4003735
36, 4003736
904, 4003737
522, 4003738
359, 4003739
520, 4003740
762, 4003741
430, 4003742
103, 4003743
836, 4003744
43, 4003745
159, 4003746
280, 4003747
358, 4003748
854, 4003749
27, 4003750
62, 4003751
124, 4003752
129, 4003753
929, 4003754
831, 4003755
57, 4003756
923, 4003757
213, 4003758
747, 4003759
278, 4003760
550, 4003761
970, 4003762
310, 4003763
241, 4003764
837, 4003765
61, 4003766
916, 4003767
360, 4003768
263, 4003769
217, 4003770
988, 4003771
126, 4003772
986, 4003773
829, 4003774
566, 4003775
389, 4003776
32, 4003777
7, 4003778
652, 4003779
346, 4003780
597, 4003781
100, 4003782
140, 4003783
244, 4003784
862, 4003785
204, 4003786
195, 4003787
525, 4003788
402, 4003789
650, 4003790
787, 4003791
270, 4003792
357, 4003793
938, 4003794
453, 4003795
711, 4003796
744, 4003797
785, 4003798
903, 4003799
100, 4003800
946, 4003801
840, 4003802
688, 4003803
32, 4003804
321, 4003805
337, 4003806
358, 4003807
678, 4003808
81, 4003809
216, 4003810
270, 4003811
282, 4003812
979, 4003813
354, 4003814
404, 4003815
716, 4003816
86, 4003817
728, 4003818
862, 4003819
212, 4003820
962, 4003821
989, 4003822
844, 4003823
158, 4003824
960, 4003825
171, 4003826
339, 4003827
112, 4003828
146, 4003829
770, 4003830
997, 4003831
767, 4003832
968, 4003833
769, 4003834
577, 4003835
229, 4003836
217, 4003837
666, 4003838
17, 4003839
517, 4003840
886, 4003841
770, 4003842
774, 4003843
716, 4003844
2, 4003845
749, 4003846
182, 4003847
34, 4003848
283, 4003849
70, 4003850
174, 4003851
375, 4003852
338, 4003853
485, 4003854
928, 4003855
294, 4003856
791, 4003857
614, 4003858
694, 4003859
580, 4003860
573, 4003861
312, 4003862
204, 4003863
697, 4003864
563, 4003865
211, 4003866
97, 4003867
189, 4003868
481, 4003869
968, 4003870
790, 4003871
276, 4003872
567, 4003873
853, 4003874
965, 4003875
234, 4003876
641, 4003877
630, 4003878
330, 4003879
127, 4003880
348, 4003881
188, 4003882
877, 4003883
364, 4003884
466, 4003885
609, 4003886
38, 4003887
436, 4003888
474, 4003889
394, 4003890
119, 4003891
907, 4003892
992, 4003893
347, 4003894
325, 4003895
410, 4003896
419, 4003897
470, 4003898
783, 4003899
56, 4003900
505, 4003901
348, 4003902
333, 4003903
434, 4003904
988, 4003905
369, 4003906
305, 4003907
435, 4003908
208, 4003909
548, 4003910
785, 4003911
764, 4003912
642, 4003913
156, 4003914
530, 4003915
981, 4003916
330, 4003917
779, 4003918
966, 4003919
65, 4003920
953, 4003921
503, 4003922
47, 4003923
222, 4003924
571, 4003925
139, 4003926
369, 4003927
234, 4003928
422, 4003929
178, 4003930
251, 4003931
750, 4003932
105, 4003933
692, 4003934
798, 4003935
110, 4003936
581, 4003937
783, 4003938
988, 4003939
351, 4003940
511, 4003941
295, 4003942
897, 4003943
40, 4003944
947, 4003945
789, 4003946
469, 4003947
273, 4003948
442, 4003949
51, 4003950
896, 4003951
830, 4003952
828, 4003953
37, 4003954
260, 4003955
563, 4003956
110, 4003957
9, 4003958
991, 4003959
193, 4003960
725, 4003961
439, 4003962
205, 4003963
520, 4003964
625, 4003965
178, 4003966
761, 4003967
211, 4003968
842, 4003969
461, 4003970
317, 4003971
142, 4003972
446, 4003973
902, 4003974
980, 4003975
18, 4003976
584, 4003977
302, 4003978
159, 4003979
712, 4003980
162, 4003981
503, 4003982
141, 4003983
273, 4003984
140, 4003985
348, 4003986
440, 4003987
92, 4003988
217, 4003989
547, 4003990
550, 4003991
399, 4003992
425, 4003993
534, 4003994
598, 4003995
572, 4003996
841, 4003997
869, 4003998
894, 4003999
14, 4004000
